NAME : rnd23_20.tsp
TYPE : TSP
DIMENSION : 20
EDGE_WEIGHT_TYPE : EUC_2D
NODE_COORD_SECTION
0 6 697
1 127 546
2 560 378
3 616 789
4 367 554
5 29 390
6 110 573
7 509 412
8 779 43
9 625 773
10 949 628
11 534 892
12 726 269
13 194 639
14 680 525
15 628 160
16 252 786
17 720 773
18 658 51
19 35 505
